(declare-fun ExpandObjSwitcher () Real)
(declare-fun Constructed_Argument_t () String)
(declare-fun CreateAsClass () Bool)
(declare-fun Constructed_Argument () String)
(declare-fun |IsMatch_/BSx1BBS[BSd+m/_0| () Bool)
(declare-fun Constructed_Argument_2_t () String)
(declare-fun Constructed_Argument_3_t () String)
(assert (= ExpandObjSwitcher 3.0))
(assert (= Constructed_Argument_t "string"))
(assert CreateAsClass)
(assert (not (str.in.re Constructed_Argument (re.++ (re.* (re.range "\x00" "\xff")) (str.to.re "\x1B[") (re.range "0" "9") (re.* (re.range "0" "9")) (str.to.re "m") (re.* (re.range "\x00" "\xff"))))))
(assert (not |IsMatch_/BSx1BBS[BSd+m/_0|))
(assert (not (<= (to_real (str.len Constructed_Argument)) 0.0)))
(assert (not (= Constructed_Argument_2_t "string")))
(assert (not (= Constructed_Argument_2_t "number")))
(assert (not (= Constructed_Argument_2_t "boolean")))
(assert (not (= Constructed_Argument_2_t "object")))
(assert (not (= Constructed_Argument_2_t "array_number")))
(assert (not (= Constructed_Argument_2_t "array_string")))
(assert (not (= Constructed_Argument_2_t "array_bool")))
(assert (not (= Constructed_Argument_2_t "null")))
(assert (not (<= (to_real (str.len Constructed_Argument)) 1.0)))
(assert (not (= Constructed_Argument_3_t "string")))
(assert (not (= Constructed_Argument_3_t "number")))
(assert (not (= Constructed_Argument_3_t "boolean")))
(assert (not (= Constructed_Argument_3_t "object")))
(assert (not (= Constructed_Argument_3_t "array_number")))
(assert (not (= Constructed_Argument_3_t "array_string")))
(assert (= Constructed_Argument_3_t "array_bool"))
(check-sat)
